
Gurobi 10.0.1 (linux64) logging started Sun Nov 26 16:06:06 2023

Set parameter LogFile to value "ArtificialInstance/ExperimentV2/S3T4K2/BaSp/gurobi91.txt"
Gurobi Optimizer version 10.0.1 build v10.0.1rc0 (linux64)

CPU model: AMD EPYC 7H12 64-Core Processor, instruction set [SSE2|AVX|AVX2]
Thread count: 128 physical cores, 128 logical processors, using up to 32 threads

Academic license 656792 - for non-commercial use only - registered to b.___@student.vu.nl
Optimize a model with 2760 rows, 4160 columns and 13920 nonzeros
Model fingerprint: 0xa2a097f7
Variable types: 0 continuous, 4160 integer (4160 binary)
Coefficient statistics:
  Matrix range     [1e+00, 1e+00]
  Objective range  [1e+00, 2e+01]
  Bounds range     [1e+00, 1e+00]
  RHS range        [1e+00, 1e+00]
Found heuristic solution: objective 641.0328958
Presolve time: 0.02s
Presolved: 2760 rows, 4160 columns, 13920 nonzeros
Variable types: 0 continuous, 4160 integer (4160 binary)

Root relaxation: objective 4.681571e+01, 2225 iterations, 0.06 seconds (0.06 work units)

    Nodes    |    Current Node    |     Objective Bounds      |     Work
 Expl Unexpl |  Obj  Depth IntInf | Incumbent    BestBd   Gap | It/Node Time

     0     0   46.81571    0  522  641.03290   46.81571  92.7%     -    0s
H    0     0                     324.9437000   46.81571  85.6%     -    0s
H    0     0                     202.6828848   46.81571  76.9%     -    0s
H    0     0                      83.5799963   46.81571  44.0%     -    0s
     0     0   53.04840    0  763   83.58000   53.04840  36.5%     -    0s
H    0     0                      78.9196936   53.04840  32.8%     -    0s
H    0     0                      73.9364179   56.89682  23.0%     -    0s
     0     0   56.89682    0  906   73.93642   56.89682  23.0%     -    0s
     0     0   56.89688    0  902   73.93642   56.89688  23.0%     -    0s
H    0     0                      71.6401266   58.81029  17.9%     -    0s
     0     0   58.81029    0  816   71.64013   58.81029  17.9%     -    0s
     0     0   58.95414    0  809   71.64013   58.95414  17.7%     -    0s
     0     0   58.95744    0  815   71.64013   58.95744  17.7%     -    0s
     0     0   59.95380    0  884   71.64013   59.95380  16.3%     -    1s
H    0     0                      70.7834755   60.08582  15.1%     -    1s
     0     0   60.08582    0  843   70.78348   60.08582  15.1%     -    1s
     0     0   60.08582    0  847   70.78348   60.08582  15.1%     -    1s
H    0     0                      69.7608803   60.68966  13.0%     -    1s
     0     0   60.68966    0  883   69.76088   60.68966  13.0%     -    1s
     0     0   60.72169    0  873   69.76088   60.72169  13.0%     -    1s
     0     0   60.72434    0  874   69.76088   60.72434  13.0%     -    1s
     0     0   60.82653    0  711   69.76088   60.82653  12.8%     -    1s
H    0     0                      68.5964567   60.88769  11.2%     -    1s
     0     0   60.88769    0  751   68.59646   60.88769  11.2%     -    1s
     0     0   60.89025    0  755   68.59646   60.89025  11.2%     -    1s
     0     0   61.29827    0  859   68.59646   61.29827  10.6%     -    1s
H    0     0                      67.4957969   61.29827  9.18%     -    1s
     0     0   61.36782    0  829   67.49580   61.36782  9.08%     -    1s
     0     0   61.37612    0  790   67.49580   61.37612  9.07%     -    1s
     0     0   61.37642    0  802   67.49580   61.37642  9.07%     -    1s
     0     0   61.41895    0  875   67.49580   61.41895  9.00%     -    1s
     0     0   61.43898    0  840   67.49580   61.43898  8.97%     -    1s
     0     0   61.44173    0  839   67.49580   61.44173  8.97%     -    1s
     0     0   61.44173    0  811   67.49580   61.44173  8.97%     -    1s
     0     0   61.44173    0  827   67.49580   61.44173  8.97%     -    1s
     0     0   61.44188    0  855   67.49580   61.44188  8.97%     -    1s
     0     0   61.44188    0  776   67.49580   61.44188  8.97%     -    2s
     0     2   61.44188    0  776   67.49580   61.44188  8.97%     -    2s

Cutting planes:
  Gomory: 4
  Zero half: 104
  RLT: 121

Explored 156 nodes (49225 simplex iterations) in 3.75 seconds (2.62 work units)
Thread count was 32 (of 128 available processors)

Solution count 10: 67.4958 68.5965 69.7609 ... 324.944

Optimal solution found (tolerance 1.00e-04)
Best objective 6.749579686829e+01, best bound 6.749579686829e+01, gap 0.0000%
